6 48 4 10
2 1 13 18 12 18 4 19 9 4 16 16 15 20 9 7 9 18 13 17 13 2 11 11 1 4 11 9 6 15 17 11 7 11 2 3 17 19 18 1 2 16 4 20 9 4 10 2 
6.71 4.56 1.03 3.13 0.79 0.08 6.69 5.02 3.82 6.51 1.01 2.71 7.15 0.27 7.61 4.7 0.32 0.4 3.13 2.11 0.2 5.84 0.18 1.62 1.53 4.96 2.37 0.46 4.9 6.91 4.28 5.79 4.23 5.87 6.99 4.24 5.67 0.38 4.49 4.64 4.26 6.35 1.54 1.91 2.81 2.46 2.39 2.39 
6.31 1.08 7.26 5.82 4.01 5.7 3.33 6.96 2 7.21 3.25 1.65 6.19 4.87 3.12 1.73 5.56 1.02 1.52 2.88 4.48 0.84 4.53 7.62 0.88 1.99 7.61 4.61 7.32 7.66 1.13 1.12 5.28 6.32 0.1 7.63 3.8 7.05 4.2 0.38 5.88 2.14 7.38 2.63 5.87 3.6 0.45 5.36 
3.84 0.96 2.58 6.85 2.89 1.9 4.17 3.06 6.34 5.94 7.91 3.39 2.85 3.6 2.44 3.86 4.86 0.46 6.19 3.2 1.05 0.85 6.55 4.45 5.68 4.11 0.66 5.32 4.95 2.09 6.95 1.89 1.33 4.25 6.72 1.14 3.52 5.91 3.02 7.75 5.5 6.16 6.79 4.93 7.54 7 2.83 6.86 
0.66 2.71 0.9 5.65 5.02 6.59 0.14 5.46 0.1 2.52 5.44 2.55 2.91 2.92 0.92 5.02 0.51 1.35 5.5 2.33 7.79 4.01 4.11 5.46 0.75 7.49 6.67 6.5 2.7 7.25 4.63 3.6 6.76 4.47 1.78 1.19 1.45 4.83 5.85 1.69 7.75 4.4 1.16 1.73 2.75 2.24 4.64 0.92 
4 4 4 4 4 4 4 4 4 4 4 4 4 4 4 4 4 4 4 4 4 4 4 4 4 4 4 4 4 4 4 4 4 4 4 4 4 4 4 4 4 4 4 4 4 4 4 4 
1.29 1.57 4.53 3.3 2.96 7.58 6.11 7.48 1.7 4.08 2.62 7.98 1.16 5.05 0.18 6.66 1.91 3.47 0.53 0.73 5.28 4.72 3.55 4.1 5.21 2.03 4.66 5.09 7.09 3.78 3.68 2.69 4.68 4.22 7.83 4.1 2.87 3.55 6.72 6.02 5.46 2.51 1.5 4.17 2.94 2 3.24 2.72 
1 1 1 1 1 1 1 1 1 1 1 1 1 1 1 1 1 1 1 1 1 1 1 1 1 1 1 1 1 1 1 1 1 1 1 1 1 1 1 1 1 1 1 1 1 1 1 1 
1 1 1 1 1 1 1 1 1 1 1 1 1 1 1 1 1 1 1 1 1 1 1 1 1 1 1 1 1 1 1 1 1 1 1 1 1 1 1 1 1 1 1 1 1 1 1 1 
1 1 1 1 1 1 1 1 1 1 1 1 1 1 1 1 1 1 1 1 1 1 1 1 1 1 1 1 1 1 1 1 1 1 1 1 1 1 1 1 1 1 1 1 1 1 1 1 
1 1 1 1 1 1 1 1 1 1 1 1 1 1 1 1 1 1 1 1 1 1 1 1 1 1 1 1 1 1 1 1 1 1 1 1 1 1 1 1 1 1 1 1 1 1 1 1 
1 1 1 1 1 1 1 1 1 1 1 1 1 1 1 1 1 1 1 1 1 1 1 1 1 1 1 1 1 1 1 1 1 1 1 1 1 1 1 1 1 1 1 1 1 1 1 1 
1 1 1 1 1 1 1 1 1 1 1 1 1 1 1 1 1 1 1 1 1 1 1 1 1 1 1 1 1 1 1 1 1 1 1 1 1 1 1 1 1 1 1 1 1 1 1 1 
0.01 0.01 0.01 0.01 0.01 0.01 0.01 0.01 0.01 0.01 0.01 0.01 0.01 0.01 0.01 0.01 0.01 0.01 0.01 0.01 0.01 0.01 0.01 0.01 0.01 0.01 0.01 0.01 0.01 0.01 0.01 0.01 0.01 0.01 0.01 0.01 0.01 0.01 0.01 0.01 0.01 0.01 0.01 0.01 0.01 0.01 0.01 0.01 
0.02 0.02 0.02 0.02 0.02 0.02 0.02 0.02 0.02 0.02 0.02 0.02 0.02 0.02 0.02 0.02 0.02 0.02 0.02 0.02 0.02 0.02 0.02 0.02 0.02 0.02 0.02 0.02 0.02 0.02 0.02 0.02 0.02 0.02 0.02 0.02 0.02 0.02 0.02 0.02 0.02 0.02 0.02 0.02 0.02 0.02 0.02 0.02 
0.03 0.03 0.03 0.03 0.03 0.03 0.03 0.03 0.03 0.03 0.03 0.03 0.03 0.03 0.03 0.03 0.03 0.03 0.03 0.03 0.03 0.03 0.03 0.03 0.03 0.03 0.03 0.03 0.03 0.03 0.03 0.03 0.03 0.03 0.03 0.03 0.03 0.03 0.03 0.03 0.03 0.03 0.03 0.03 0.03 0.03 0.03 0.03 
0.04 0.04 0.04 0.04 0.04 0.04 0.04 0.04 0.04 0.04 0.04 0.04 0.04 0.04 0.04 0.04 0.04 0.04 0.04 0.04 0.04 0.04 0.04 0.04 0.04 0.04 0.04 0.04 0.04 0.04 0.04 0.04 0.04 0.04 0.04 0.04 0.04 0.04 0.04 0.04 0.04 0.04 0.04 0.04 0.04 0.04 0.04 0.04 
0.05 0.05 0.05 0.05 0.05 0.05 0.05 0.05 0.05 0.05 0.05 0.05 0.05 0.05 0.05 0.05 0.05 0.05 0.05 0.05 0.05 0.05 0.05 0.05 0.05 0.05 0.05 0.05 0.05 0.05 0.05 0.05 0.05 0.05 0.05 0.05 0.05 0.05 0.05 0.05 0.05 0.05 0.05 0.05 0.05 0.05 0.05 0.05 
1 1 1 1 1 1 1 1 1 1 1 1 1 1 1 1 1 1 1 1 1 1 1 1 1 1 1 1 1 1 1 1 1 1 1 1 1 1 1 1 1 1 1 1 1 1 1 1 
